; benchmark generated from python API
(set-info :status unknown)
(declare-datatypes ((IntState 0)) (((Mk1 (val1 Int)) (Mk2 (val2 Int)))))
 (declare-fun c_main_~i~6 () Int)
(declare-fun c_main_~k~6 () Int)
(declare-fun c_main_~j~6 () Int)
(assert
 (let (($x100 (<= c_main_~i~6 3)))
 (let (($x146 (exists ((main_~i~6_st IntState) (val!91 Int) )(let ((?x56 (val2 main_~i~6_st)))
 (let (($x139 (<= ?x56 4)))
 (let (($x111 (and (<= c_main_~j~6 (+ (* 2 ?x56) 2)) $x139 (<= ?x56 c_main_~k~6))))
 (let (($x52 (not (= main_~i~6_st (Mk1 val!91)))))
 (and $x52 $x111))))))
 ))
 (let (($x115 (<= c_main_~i~6 4)))
 (let (($x174 (<= c_main_~j~6 (+ (* 2 c_main_~i~6) 2))))
 (let ((?x172 (* 2 c_main_~i~6)))
 (let (($x34 (<= c_main_~j~6 ?x172)))
 (let (($x79 (exists ((v_nnf_96 Int) )(let (($x144 (<= v_nnf_96 4)))
 (let (($x154 (<= c_main_~j~6 (+ (* 2 v_nnf_96) 2))))
 (and (<= (+ v_nnf_96 2) c_main_~k~6) $x154 $x144))))
 ))
 (let (($x11 (<= c_main_~j~6 (+ ?x172 1))))
 (and (and $x11 $x115 $x174 $x79 $x34 $x100) (not (and $x174 $x115 $x146 $x100))))))))))))
(check-sat)
